%oldchk=Au4L4-opt.chk
%chk=Au4L4-nosymm.chk
%nprocs=4
%mem=2GB
#p pbe1pbe/def2TZVP guess=read pop=nboread int=ultrafine nosymm

Au4L4-nosymm

2 1
 Au                 0.98780500    0.98780500    0.98780500
 Au                -0.98780500   -0.98780500    0.98780500
 Au                 0.98780500   -0.98780500   -0.98780500
 Au                -0.98780500    0.98780500   -0.98780500
 P                  2.33876700    2.33876700    2.33876700
 H                  3.21542500    1.65931900    3.21542500
 H                  3.21542500    3.21542500    1.65931900
 H                  1.65931900    3.21542500    3.21542500
 P                 -2.33876700   -2.33876700    2.33876700
 H                 -3.21542500   -3.21542500    1.65931900
 H                 -1.65931900   -3.21542500    3.21542500
 H                 -3.21542500   -1.65931900    3.21542500
 P                  2.33876700   -2.33876700   -2.33876700
 H                  3.21542500   -3.21542500   -1.65931900
 H                  1.65931900   -3.21542500   -3.21542500
 H                  3.21542500   -1.65931900   -3.21542500
 P                 -2.33876700    2.33876700   -2.33876700
 H                 -1.65931900    3.21542500   -3.21542500
 H                 -3.21542500    1.65931900   -3.21542500
 H                 -3.21542500    3.21542500   -1.65931900

 $nbo archive filename=Au4L4-nosymm BNDIDX SKIPBO $end


